% seed = 0

mint = 9;
% maxt = 75;

nActs = 31;
dur = [0,2,3,4,3,3,2,2,3,4,3,2,4,2,2,1,3,2,2,2,2,2,2,3,3,1,3,3,3,4,0];

nSkills = 8;
sreq = [| 0,0,0,0,0,0,0,0,
	| 0,1,0,1,2,1,0,0,
	| 2,1,0,0,1,1,0,0,
	| 1,2,0,0,1,1,0,0,
	| 1,0,0,0,0,1,3,0,
	| 1,1,1,0,1,0,0,0,
	| 2,0,1,0,0,0,1,0,
	| 0,1,0,0,1,1,0,1,
	| 2,0,0,0,1,0,1,0,
	| 0,2,1,0,1,0,0,0,
	| 2,0,0,0,0,0,1,0,
	| 1,0,0,0,1,0,1,0,
	| 1,0,1,1,0,0,0,0,
	| 0,1,0,0,1,0,1,0,
	| 3,0,0,0,0,0,0,0,
	| 0,0,1,1,2,0,0,1,
	| 2,1,0,0,0,0,1,1,
	| 3,0,1,0,1,0,0,0,
	| 3,0,0,1,0,0,1,0,
	| 0,1,1,1,1,0,0,1,
	| 2,2,0,0,0,0,0,0,
	| 1,0,0,2,1,0,0,0,
	| 2,0,0,0,0,1,0,1,
	| 0,1,1,1,1,0,0,0,
	| 3,0,0,0,1,0,0,0,
	| 0,0,0,1,1,0,1,1,
	| 1,1,0,1,0,0,0,0,
	| 0,1,0,0,2,0,0,0,
	| 3,0,0,0,0,0,0,0,
	| 0,1,0,0,1,1,0,0,
	| 0,0,0,0,0,0,0,0, |];

% SumOfsreq = 116;

nResources = 10;
mastery = [| false,true,false,true,true,true,true,true,
	| true,false,true,false,true,true,true,true,
	| true,true,false,true,true,true,true,false,
	| true,false,true,true,false,true,true,false,
	| false,true,true,false,true,true,true,false,
	| false,true,true,false,true,true,false,true,
	| true,true,true,true,false,false,true,false,
	| false,false,false,true,false,true,true,true,
	| false,true,false,false,true,true,false,true,
	| false,false,true,true,true,true,false,false, |];

nPrecs = 60;
pred = [1,1,1,1,1,1,1,1,1,1,1,1,1,1,1,1,1,1,1,1,1,1,1,1,1,1,1,1,1,1,2,2,3,4,5,6,7,8,9,10,11,12,13,14,15,16,17,18,19,20,21,22,23,24,25,26,27,28,29,30];
succ = [2,3,4,5,6,7,8,9,10,11,12,13,14,15,16,17,18,19,20,21,22,23,24,25,26,27,28,29,30,31,21,6,5,31,11,31,31,25,18,15,31,16,20,18,19,31,28,31,31,21,31,31,31,31,31,31,31,31,31,31];

nUnrels = 390;
unpred = [2,2,2,2,2,2,2,2,2,2,2,2,2,2,2,2,2,2,2,2,2,2,2,2,2,2,3,3,3,3,3,3,3,3,3,3,3,3,3,3,3,3,3,3,3,3,3,3,3,3,3,4,4,4,4,4,4,4,4,4,4,4,4,4,4,4,4,4,4,4,4,4,4,4,4,4,4,5,5,5,5,5,5,5,5,5,5,5,5,5,5,5,5,5,5,5,5,5,5,5,5,6,6,6,6,6,6,6,6,6,6,6,6,6,6,6,6,6,6,6,6,6,6,6,6,7,7,7,7,7,7,7,7,7,7,7,7,7,7,7,7,7,7,7,7,7,7,7,8,8,8,8,8,8,8,8,8,8,8,8,8,8,8,8,8,8,8,8,8,9,9,9,9,9,9,9,9,9,9,9,9,9,9,9,9,9,9,9,9,10,10,10,10,10,10,10,10,10,10,10,10,10,10,10,10,10,10,11,11,11,11,11,11,11,11,11,11,11,11,11,11,11,11,11,11,11,12,12,12,12,12,12,12,12,12,12,12,12,12,12,12,12,12,13,13,13,13,13,13,13,13,13,13,13,13,13,13,13,14,14,14,14,14,14,14,14,14,14,14,14,14,14,14,15,15,15,15,15,15,15,15,15,15,15,15,15,15,16,16,16,16,16,16,16,16,16,16,16,16,16,16,17,17,17,17,17,17,17,17,17,17,17,17,18,18,18,18,18,18,18,18,18,18,18,18,19,19,19,19,19,19,19,19,19,19,19,20,20,20,20,20,20,20,20,20,21,21,21,21,21,21,21,21,21,22,22,22,22,22,22,22,22,23,23,23,23,23,23,23,24,24,24,24,24,24,25,25,25,25,25,26,26,26,26,27,27,27,28,28,29];
unsucc = [3,4,5,7,8,9,10,11,12,13,14,15,16,17,18,19,20,22,23,24,25,26,27,28,29,30,4,6,7,8,9,10,12,13,14,15,16,17,18,19,20,21,22,23,24,25,26,27,28,29,30,5,6,7,8,9,10,11,12,13,14,15,16,17,18,19,20,21,22,23,24,25,26,27,28,29,30,6,7,8,9,10,12,13,14,15,16,17,18,19,20,21,22,23,24,25,26,27,28,29,30,7,8,9,10,11,12,13,14,15,16,17,18,19,20,21,22,23,24,25,26,27,28,29,30,8,9,10,11,12,13,14,15,16,17,18,19,20,21,22,23,24,25,26,27,28,29,30,9,10,11,12,13,14,15,16,17,18,19,20,21,22,23,24,26,27,28,29,30,10,11,12,13,14,15,16,17,19,20,21,22,23,24,25,26,27,28,29,30,11,12,13,14,16,17,18,20,21,22,23,24,25,26,27,28,29,30,12,13,14,15,16,17,18,19,20,21,22,23,24,25,26,27,28,29,30,13,14,15,17,18,19,20,21,22,23,24,25,26,27,28,29,30,14,15,16,17,18,19,22,23,24,25,26,27,28,29,30,15,16,17,19,20,21,22,23,24,25,26,27,28,29,30,16,17,18,20,21,22,23,24,25,26,27,28,29,30,17,18,19,20,21,22,23,24,25,26,27,28,29,30,18,19,20,21,22,23,24,25,26,27,29,30,19,20,21,22,23,24,25,26,27,28,29,30,20,21,22,23,24,25,26,27,28,29,30,22,23,24,25,26,27,28,29,30,22,23,24,25,26,27,28,29,30,23,24,25,26,27,28,29,30,24,25,26,27,28,29,30,25,26,27,28,29,30,26,27,28,29,30,27,28,29,30,28,29,30,29,30,30];

USEFUL_RES = [{},
	{1,2,3,4,5,6,7,8,9,10},
	{1,2,3,4,5,6,7,8,9,10},
	{1,2,3,4,5,6,7,8,9,10},
	{1,2,3,4,5,6,7,8,9,10},
	{1,2,3,4,5,6,7,9,10},
	{1,2,3,4,5,6,7,8,10},
	{1,2,3,4,5,6,7,8,9,10},
	{1,2,3,4,5,6,7,8,9,10},
	{1,2,3,4,5,6,7,9,10},
	{1,2,3,4,5,7,8},
	{1,2,3,4,5,6,7,8,9,10},
	{1,2,3,4,5,6,7,8,10},
	{1,2,3,4,5,6,7,8,9,10},
	{2,3,4,7},
	{1,2,3,4,5,6,7,8,9,10},
	{1,2,3,4,5,6,7,8,9},
	{1,2,3,4,5,6,7,9,10},
	{1,2,3,4,5,7,8,10},
	{1,2,3,4,5,6,7,8,9,10},
	{1,2,3,4,5,6,7,9},
	{1,2,3,4,5,6,7,8,9,10},
	{1,2,3,4,5,6,7,8,9,10},
	{1,2,3,4,5,6,7,8,9,10},
	{1,2,3,4,5,6,7,9,10},
	{1,2,3,4,5,6,7,8,9,10},
	{1,2,3,4,5,6,7,8,9,10},
	{1,2,3,5,6,7,9,10},
	{2,3,4,7},
	{1,2,3,4,5,6,7,8,9,10},
	{}];

POTENTIAL_ACT = [{2,3,4,5,6,7,8,9,10,11,12,13,14,16,17,18,19,20,21,22,23,24,25,26,27,28,30},
	{2,3,4,5,6,7,8,9,10,11,12,13,14,15,16,17,18,19,20,21,22,23,24,25,26,27,28,29,30},
	{2,3,4,5,6,7,8,9,10,11,12,13,14,15,16,17,18,19,20,21,22,23,24,25,26,27,28,29,30},
	{2,3,4,5,6,7,8,9,10,11,12,13,14,15,16,17,18,19,20,21,22,23,24,25,26,27,29,30},
	{2,3,4,5,6,7,8,9,10,11,12,13,14,16,17,18,19,20,21,22,23,24,25,26,27,28,30},
	{2,3,4,5,6,7,8,9,10,12,13,14,16,17,18,20,21,22,23,24,25,26,27,28,30},
	{2,3,4,5,6,7,8,9,10,11,12,13,14,15,16,17,18,19,20,21,22,23,24,25,26,27,28,29,30},
	{2,3,4,5,7,8,9,11,12,13,14,16,17,19,20,22,23,24,26,27,30},
	{2,3,4,5,6,8,9,10,12,14,16,17,18,20,21,22,23,24,25,26,27,28,30},
	{2,3,4,5,6,7,8,9,10,12,13,14,16,18,19,20,22,23,24,25,26,27,28,30}];
